# Solution for model GasLib-40
# Objective value = 4.9164456031236014e+01
loadshed[innode_1] 0
loadshed[innode_2] 0
loadshed[innode_3] 0
loadshed[innode_4] 0
loadshed[innode_5] 0
loadshed[innode_6] 0
loadshed[innode_7] 0
loadshed[innode_8] 0
loadshed[source_1] -1.9234096216284091e-01
loadshed[source_2] 1.6491711172819423e-01
loadshed[source_3] 3.3841360086282535e-01
loadshed[sink_1] 1.1843488396295854e-01
loadshed[sink_2] 0
loadshed[sink_3] 0
loadshed[sink_4] 0
loadshed[sink_5] 0
loadshed[sink_6] 0
loadshed[sink_7] 0
loadshed[sink_8] 0
loadshed[sink_9] 0
loadshed[sink_10] 0
loadshed[sink_11] 0
loadshed[sink_12] 1
loadshed[sink_13] 0
loadshed[sink_14] 0
loadshed[sink_15] 0
loadshed[sink_16] 0
loadshed[sink_17] 0
loadshed[sink_18] 0
loadshed[sink_19] 0
loadshed[sink_20] 0
loadshed[sink_21] 1
loadshed[sink_22] 0
loadshed[sink_23] 0
loadshed[sink_24] 8.8779937017631350e-01
loadshed[sink_25] 0
loadshed[sink_26] 0
loadshed[sink_27] 0
loadshed[sink_28] 0
loadshed[sink_29] 0
flow[source_1,sink_3] 1.8849751391414634e+02
flow[innode_1,sink_16] 1.6354166666666970e+01
flow[innode_6,sink_13] 9.8887890530701839e+00
flow[sink_13,sink_14] -6.4653776135964840e+00
flow[sink_14,sink_10] -2.2819544280263244e+01
flow[sink_25,sink_26] 0
flow[sink_26,sink_9] 6.6196090210125760e+01
flow[sink_9,sink_18] 4.9841923543459089e+01
flow[sink_26,sink_4] -8.2550256876792474e+01
flow[sink_4,sink_20] -1.0262978165530950e+02
flow[sink_18,sink_6] 3.3487756876792417e+01
flow[sink_25,innode_8] -155.78918058081
flow[sink_6,sink_7] -1.3637839291730046e+01
flow[sink_6,sink_22] 3.0771429501855785e+01
flow[sink_7,sink_24] 1.8349478002415425e+00
flow[sink_22,sink_1] 1.4417262835189117e+01
flow[sink_24,sink_21] 0
flow[sink_21,sink_12] 0
flow[sink_7,sink_5] -3.1826953758638211e+01
flow[sink_5,sink_17] -4.8181120425304840e+01
flow[sink_17,sink_4] -3.7253581118503121e+00
flow[sink_17,sink_8] -6.0809928980121185e+01
flow[sink_3,sink_23] 16.3541666666697
flow[sink_8,sink_20] -7.7164095646787814e+01
flow[sink_25,sink_20] 196.148043968764
flow[sink_25,sink_15] -6.6601819107690815e+01
flow[sink_15,sink_29] 0
flow[sink_29,sink_28] 1.6354166666667879e+01
flow[sink_29,sink_2] 9.9310152441024158e+01
flow[sink_2,sink_15] 8.2955985774357487e+01
flow[sink_29,innode_7] -1.3201848577435874e+02
flow[innode_4,sink_19] 3.9937392192239486e+01
flow[sink_19,innode_3] 7.1882044280263585e+01
flow[innode_4,innode_5] 6.4652985421356220e+01
flow[sink_27,innode_5] -6.4652985421356220e+01
flow[sink_27,sink_19] 4.8298818754689592e+01
flow[sink_10,sink_11] 3.2708333333333641e+01
flow[sink_10,innode_2] 0
flow[sink_10,innode_3] -7.1882044280263585e+01
flow[innode_6,sink_25] -9.8887890530701839e+00
flow[sink_11,innode_1] 1.6354166666666970e+01
flow[sink_19,innode_2] 0
flow[source_3,innode_4] 1.0459037761359571e+02
flow[source_2,innode_7] 1.3201848577435874e+02
flow[sink_3,innode_8] 155.78918058081
pressure[innode_1] 7.5257403913805746e+01
pressure[innode_2] 7.9395284481237084e+01
pressure[innode_3] 7.9236109833936922e+01
pressure[innode_4] 81.01325
pressure[innode_5] 8.0968778267464714e+01
pressure[innode_6] 7.4372717716436128e+01
pressure[innode_7] 81.01325
pressure[innode_8] 8.0383174819645347e+01
pressure[source_1] 81.01325
pressure[source_2] 81.01325
pressure[source_3] 81.01325
pressure[sink_1] 1.0132500000000002e+00
pressure[sink_2] 7.4966634447723692e+01
pressure[sink_3] 8.0383174819645347e+01
pressure[sink_4] 2.0082225799874969e+01
pressure[sink_5] 1.6350709688284823e+01
pressure[sink_6] 2.9269134814265523e+00
pressure[sink_7] 3.1141285072132154e+00
pressure[sink_8] 2.2234371497559383e+01
pressure[sink_9] 5.6245656444752070e+00
pressure[sink_10] 7.5409105221409291e+01
pressure[sink_11] 7.5257403913805746e+01
pressure[sink_12] 1.01325
pressure[sink_13] 7.4318202474956720e+01
pressure[sink_14] 7.4329772818924653e+01
pressure[sink_15] 7.4695801437375181e+01
pressure[sink_16] 7.4235754078988066e+01
pressure[sink_17] 1.9939854896828709e+01
pressure[sink_18] 3.8211362961921855e+00
pressure[sink_19] 7.9395284481237084e+01
pressure[sink_20] 2.7611623784548733e+01
pressure[sink_21] 1.01325
pressure[sink_22] 1.9510317674168016e+00
pressure[sink_23] 8.0218456807985561e+01
pressure[sink_24] 1.01325
pressure[sink_25] 7.4372717716436128e+01
pressure[sink_26] 9.58657249095709
pressure[sink_27] 8.0432277954339071e+01
pressure[sink_28] 7.7186990413742564e+01
pressure[sink_29] 7.7482272687359739e+01
interdiction[source_1,sink_3] 0
interdiction[innode_1,sink_16] 0
interdiction[innode_6,sink_13] 0
interdiction[sink_13,sink_14] 0
interdiction[sink_14,sink_10] 0
interdiction[sink_25,sink_26] 1
interdiction[sink_26,sink_9] 0
interdiction[sink_9,sink_18] 0
interdiction[sink_26,sink_4] 0
interdiction[sink_4,sink_20] 0
interdiction[sink_18,sink_6] 0
interdiction[sink_25,innode_8] 0
interdiction[sink_6,sink_7] 0
interdiction[sink_6,sink_22] 0
interdiction[sink_7,sink_24] 0
interdiction[sink_22,sink_1] 0
interdiction[sink_24,sink_21] 0
interdiction[sink_21,sink_12] 0
interdiction[sink_7,sink_5] 0
interdiction[sink_5,sink_17] 0
interdiction[sink_17,sink_4] 0
interdiction[sink_17,sink_8] 0
interdiction[sink_3,sink_23] 0
interdiction[sink_8,sink_20] 0
interdiction[sink_25,sink_20] 0
interdiction[sink_25,sink_15] 0
interdiction[sink_15,sink_29] 1
interdiction[sink_29,sink_28] 0
interdiction[sink_29,sink_2] 0
interdiction[sink_2,sink_15] 0
interdiction[sink_29,innode_7] 0
interdiction[innode_4,sink_19] 0
interdiction[sink_19,innode_3] 0
interdiction[innode_4,innode_5] 0
interdiction[sink_27,innode_5] 0
interdiction[sink_27,sink_19] 0
interdiction[sink_10,sink_11] 0
interdiction[sink_10,innode_2] 1
interdiction[sink_10,innode_3] 0
interdiction[innode_6,sink_25] 0
interdiction[sink_11,innode_1] 0
interdiction[sink_19,innode_2] 0
interdiction[source_3,innode_4] 0
interdiction[source_2,innode_7] 0
interdiction[sink_3,innode_8] 0
WCcheckFlow[source_1,sink_3] 39
WCcheckFlow[innode_1,sink_16] 1
WCcheckFlow[innode_6,sink_13] 13
WCcheckFlow[sink_13,sink_14] 12
WCcheckFlow[sink_14,sink_10] 11
WCcheckFlow[sink_25,sink_26] 0
WCcheckFlow[sink_26,sink_9] 12
WCcheckFlow[sink_9,sink_18] 11
WCcheckFlow[sink_26,sink_4] -13
WCcheckFlow[sink_4,sink_20] -14
WCcheckFlow[sink_18,sink_6] 10
WCcheckFlow[sink_25,innode_8] -36
WCcheckFlow[sink_6,sink_7] 7
WCcheckFlow[sink_6,sink_22] 2
WCcheckFlow[sink_7,sink_24] 3
WCcheckFlow[sink_22,sink_1] 1
WCcheckFlow[sink_24,sink_21] 2
WCcheckFlow[sink_21,sink_12] 1
WCcheckFlow[sink_7,sink_5] 3
WCcheckFlow[sink_5,sink_17] 2
WCcheckFlow[sink_17,sink_4] 0
WCcheckFlow[sink_17,sink_8] 1
WCcheckFlow[sink_3,sink_23] 1
WCcheckFlow[sink_8,sink_20] 0
WCcheckFlow[sink_25,sink_20] 15
WCcheckFlow[sink_25,sink_15] 6
WCcheckFlow[sink_15,sink_29] 0
WCcheckFlow[sink_29,sink_28] 1
WCcheckFlow[sink_29,sink_2] -4
WCcheckFlow[sink_2,sink_15] -5
WCcheckFlow[sink_29,innode_7] 2
WCcheckFlow[innode_4,sink_19] -4
WCcheckFlow[sink_19,innode_3] -6
WCcheckFlow[innode_4,innode_5] 2
WCcheckFlow[sink_27,innode_5] -1
WCcheckFlow[sink_27,sink_19] 0
WCcheckFlow[sink_10,sink_11] 3
WCcheckFlow[sink_10,innode_2] 0
WCcheckFlow[sink_10,innode_3] 7
WCcheckFlow[innode_6,sink_25] -14
WCcheckFlow[sink_11,innode_1] 2
WCcheckFlow[sink_19,innode_2] 1
WCcheckFlow[source_3,innode_4] -1
WCcheckFlow[source_2,innode_7] -1
WCcheckFlow[sink_3,innode_8] 37
